Instance name:    bar-n100-6
Authors:          PDPTW Solver
Date:             2025-11-20
Reference:        LNS with SA/RTR
Solution
Route 1 : 25 38 40 90 88 18 30 68 7 57 5 17 67 45 27 77 95 80 55 15 75 46 96 65
Route 2 : 22 72 12 43 93 41 91 62 6 47 56 97 13 26 63 76 49 2 52 99 10 60 24 50 100 74
Route 3 : 4 54 32 31 81 29 82 79 37 87 9 59 21 71 44 35 14 64 85 33 83 94 36 86
Route 4 : 20 70 16 66 1 51 34 48 8 84 28 42 19 92 98 69 23 73 78 3 11 61 53 58 39 89
